Minimize
  - 6 y_0 - 13 y_1 - 10 y_2 - 4 y_3 - 10 y_4 - 12 y_5 - 7 y_6 - 8 y_7
   - 8 y_8 - 9 y_9 - 7 y_10 - 3 y_11 - 6 y_12 - 6 y_13 - 10 y_14 - 9 y_15
   - 11 y_16 - 9 y_17 - 6 y_18 - 11 y_19 - 9 y_20 - 6 y_21 - 11 y_22
   - 6 y_23 - 8 y_24 - 14 y_25 - 8 y_26 - 8 y_28 - 5 y_29 - 7 y_30 - 8 y_31
   - 2 y_32 - 10 y_33 - 8 y_34 - 7 y_35 - 6 y_36 - 4 y_37 - 10 y_38
   - 11 y_39 - 13 y_40 - 11 y_41 - 11 y_42 - 11 y_43 - 11 y_44 - 9 y_45
   - 9 y_46 - 10 y_47 - 7 y_48 - 12 y_49 + 417 Constant
Subject To
 c_0: y_21 = 1
 c_1_0: y_0 + y_24 >= 1
 c_1_1: y_1 + y_25 >= 1
 c_1_2: y_2 + y_43 >= 1
 c_1_3: y_3 + y_11 >= 1
 c_1_4: y_4 >= 1
 c_1_5: y_5 + y_22 >= 1
 c_1_6: y_6 + y_13 >= 1
 c_1_7: y_7 + y_15 >= 1
 c_1_8: y_8 + y_31 + y_34 >= 1
 c_1_9: y_9 + y_46 >= 1
 c_1_10: y_10 >= 1
 c_1_11: y_3 + y_11 >= 1
 c_1_12: y_12 + y_18 >= 1
 c_1_13: y_6 + y_13 >= 1
 c_1_14: y_14 + y_16 + y_33 + y_41 >= 1
 c_1_15: y_7 + y_15 >= 1
 c_1_16: y_14 + y_16 >= 1
 c_1_17: y_17 + y_20 + y_26 + y_28 >= 1
 c_1_18: y_12 + y_18 >= 1
 c_1_19: y_19 + y_42 + y_49 >= 1
 c_1_20: y_17 + y_20 + y_26 + y_28 >= 1
 c_1_21: y_21 + y_30 + y_36 >= 1
 c_1_22: y_5 + y_22 + y_47 >= 1
 c_1_23: y_23 + y_29 >= 1
 c_1_24: y_0 + y_24 >= 1
 c_1_25: y_1 + y_25 >= 1
 c_1_26: y_17 + y_20 + y_26 + y_28 >= 1
 c_1_27: y_27 >= 1
 c_1_28: y_17 + y_20 + y_26 + y_28 >= 1
 c_1_29: y_23 + y_29 >= 1
 c_1_30: y_21 + y_30 >= 1
 c_1_31: y_8 + y_31 + y_34 >= 1
 c_1_32: y_32 >= 1
 c_1_33: y_14 + y_33 + y_41 >= 1
 c_1_34: y_8 + y_31 + y_34 >= 1
 c_1_35: y_35 >= 1
 c_1_36: y_21 + y_36 >= 1
 c_1_37: y_37 >= 1
 c_1_38: y_38 + y_39 + y_47 >= 1
 c_1_39: y_38 + y_39 + y_40 + y_47 >= 1
 c_1_40: y_39 + y_40 >= 1
 c_1_41: y_14 + y_33 + y_41 >= 1
 c_1_42: y_19 + y_42 >= 1
 c_1_43: y_2 + y_43 >= 1
 c_1_44: y_44 >= 1
 c_1_45: y_45 >= 1
 c_1_46: y_9 + y_46 >= 1
 c_1_47: y_22 + y_38 + y_39 + y_47 >= 1
 c_1_48: y_48 >= 1
 c_1_49: y_19 + y_49 >= 1
Bounds
 Constant = 1
Binaries
 y_0 y_1 y_2 y_3 y_4 y_5 y_6 y_7 y_8 y_9 y_10 y_11 y_12 y_13 y_14 y_15 y_16
 y_17 y_18 y_19 y_20 y_21 y_22 y_23 y_24 y_25 y_26 y_27 y_28 y_29 y_30 y_31
 y_32 y_33 y_34 y_35 y_36 y_37 y_38 y_39 y_40 y_41 y_42 y_43 y_44 y_45 y_46
 y_47 y_48 y_49
End
